<?xml version = "1.0" encoding="UTF-8" standalone="yes"?>
<CPLEXSolution version="1.2">
 <header
   problemName="IloCplex"
   solutionName="p0"
   solutionIndex="-1"
   objectiveValue="613696"
   solutionTypeValue="3"
   solutionTypeString="primal"
   solutionStatusValue="127"
   solutionStatusString="integer feasible solution"
   solutionMethodString="mip"
   primalFeasible="0"
   dualFeasible="0"
   writeLevel="3"/>
 <quality
   epInt="1.0000000000000001e-05"
   epRHS="9.9999999999999995e-07"
   maxIntInfeas="0"
   maxPrimalInfeas="0"
   maxX="1"
   maxSlack="1"/>
 <variables>
  <variable name="w0_1" index="1" value="1"/>
  <variable name="w0_2" index="2" value="1"/>
  <variable name="w0_3" index="3" value="1"/>
  <variable name="w0_5" index="5" value="1"/>
  <variable name="w0_9" index="9" value="1"/>
  <variable name="w1_1" index="15" value="1"/>
  <variable name="w1_2" index="16" value="1"/>
  <variable name="w1_3" index="17" value="1"/>
  <variable name="w1_5" index="19" value="1"/>
  <variable name="w1_9" index="23" value="1"/>
  <variable name="w3_1" index="43" value="1"/>
  <variable name="w3_2" index="44" value="1"/>
  <variable name="w3_3" index="45" value="1"/>
  <variable name="w3_5" index="47" value="1"/>
  <variable name="w3_9" index="51" value="1"/>
  <variable name="w4_1" index="57" value="1"/>
  <variable name="w4_2" index="58" value="1"/>
  <variable name="w4_3" index="59" value="1"/>
  <variable name="w4_5" index="61" value="1"/>
  <variable name="w4_9" index="65" value="1"/>
  <variable name="w8_1" index="113" value="1"/>
  <variable name="w8_2" index="114" value="1"/>
  <variable name="w8_3" index="115" value="1"/>
  <variable name="w8_5" index="117" value="1"/>
  <variable name="w8_9" index="121" value="1"/>
  <variable name="w9_1" index="127" value="1"/>
  <variable name="w9_2" index="128" value="1"/>
  <variable name="w9_3" index="129" value="1"/>
  <variable name="w9_5" index="131" value="1"/>
  <variable name="w9_9" index="135" value="1"/>
  <variable name="k0" index="196" value="1"/>
  <variable name="k1" index="197" value="1"/>
  <variable name="k3" index="199" value="1"/>
  <variable name="k4" index="200" value="1"/>
  <variable name="k8" index="204" value="1"/>
  <variable name="k9" index="205" value="1"/>
  <variable name="u1" index="211" value="1"/>
  <variable name="u2" index="212" value="1"/>
  <variable name="u3" index="213" value="1"/>
  <variable name="u5" index="215" value="1"/>
  <variable name="u9" index="219" value="1"/>
  <variable name="x0_9" index="233" value="1"/>
  <variable name="x1_74" index="398" value="1"/>
  <variable name="x2_45" index="469" value="1"/>
  <variable name="x3_93" index="617" value="1"/>
  <variable name="x4_85" index="709" value="1"/>
  <variable name="x5_65" index="789" value="1"/>
  <variable name="x6_14" index="838" value="1"/>
  <variable name="x7_49" index="973" value="1"/>
  <variable name="x8_22" index="1046" value="1"/>
  <variable name="x9_0" index="1124" value="1"/>
  <variable name="x10_24" index="1248" value="1"/>
  <variable name="x11_13" index="1337" value="1"/>
  <variable name="x12_32" index="1456" value="1"/>
  <variable name="x13_11" index="1535" value="1"/>
  <variable name="x14_6" index="1630" value="1"/>
  <variable name="x15_21" index="1745" value="1"/>
  <variable name="x16_91" index="1915" value="1"/>
  <variable name="x17_81" index="2005" value="1"/>
  <variable name="x18_48" index="2072" value="1"/>
  <variable name="x19_82" index="2206" value="1"/>
  <variable name="x20_83" index="2307" value="1"/>
  <variable name="x21_15" index="2339" value="1"/>
  <variable name="x22_8" index="2432" value="1"/>
  <variable name="x23_38" index="2562" value="1"/>
  <variable name="x24_10" index="2634" value="1"/>
  <variable name="x25_35" index="2759" value="1"/>
  <variable name="x26_31" index="2855" value="1"/>
  <variable name="x27_33" index="2957" value="1"/>
  <variable name="x28_84" index="3108" value="1"/>
  <variable name="x29_88" index="3212" value="1"/>
  <variable name="x30_69" index="3293" value="1"/>
  <variable name="x31_26" index="3350" value="1"/>
  <variable name="x32_12" index="3436" value="1"/>
  <variable name="x33_27" index="3551" value="1"/>
  <variable name="x34_63" index="3687" value="1"/>
  <variable name="x35_25" index="3749" value="1"/>
  <variable name="x36_55" index="3879" value="1"/>
  <variable name="x37_98" index="4022" value="1"/>
  <variable name="x38_23" index="4047" value="1"/>
  <variable name="x39_62" index="4186" value="1"/>
  <variable name="x40_41" index="4265" value="1"/>
  <variable name="x41_40" index="4364" value="1"/>
  <variable name="x42_89" index="4513" value="1"/>
  <variable name="x43_80" index="4604" value="1"/>
  <variable name="x44_77" index="4701" value="1"/>
  <variable name="x45_2" index="4726" value="1"/>
  <variable name="x46_75" index="4899" value="1"/>
  <variable name="x47_78" index="5002" value="1"/>
  <variable name="x48_18" index="5042" value="1"/>
  <variable name="x49_7" index="5131" value="1"/>
  <variable name="x50_99" index="5323" value="1"/>
  <variable name="x51_60" index="5384" value="1"/>
  <variable name="x52_59" index="5483" value="1"/>
  <variable name="x53_94" index="5618" value="1"/>
  <variable name="x54_90" index="5714" value="1"/>
  <variable name="x55_36" index="5760" value="1"/>
  <variable name="x56_87" index="5911" value="1"/>
  <variable name="x57_95" index="6019" value="1"/>
  <variable name="x58_96" index="6120" value="1"/>
  <variable name="x59_52" index="6176" value="1"/>
  <variable name="x60_51" index="6275" value="1"/>
  <variable name="x61_72" index="6396" value="1"/>
  <variable name="x62_39" index="6463" value="1"/>
  <variable name="x63_34" index="6558" value="1"/>
  <variable name="x64_68" index="6692" value="1"/>
  <variable name="x65_5" index="6729" value="1"/>
  <variable name="x66_70" index="6894" value="1"/>
  <variable name="x67_97" index="7021" value="1"/>
  <variable name="x68_64" index="7088" value="1"/>
  <variable name="x69_30" index="7154" value="1"/>
  <variable name="x70_66" index="7290" value="1"/>
  <variable name="x71_76" index="7400" value="1"/>
  <variable name="x72_61" index="7485" value="1"/>
  <variable name="x73_92" index="7616" value="1"/>
  <variable name="x74_1" index="7625" value="1"/>
  <variable name="x75_46" index="7770" value="1"/>
  <variable name="x76_71" index="7895" value="1"/>
  <variable name="x77_44" index="7968" value="1"/>
  <variable name="x78_47" index="8071" value="1"/>
  <variable name="x79_86" index="8210" value="1"/>
  <variable name="x80_43" index="8267" value="1"/>
  <variable name="x81_17" index="8341" value="1"/>
  <variable name="x82_19" index="8443" value="1"/>
  <variable name="x83_20" index="8544" value="1"/>
  <variable name="x84_28" index="8652" value="1"/>
  <variable name="x85_4" index="8728" value="1"/>
  <variable name="x86_79" index="8903" value="1"/>
  <variable name="x87_56" index="8980" value="1"/>
  <variable name="x88_29" index="9053" value="1"/>
  <variable name="x89_42" index="9166" value="1"/>
  <variable name="x90_54" index="9278" value="1"/>
  <variable name="x91_16" index="9340" value="1"/>
  <variable name="x92_73" index="9497" value="1"/>
  <variable name="x93_3" index="9527" value="1"/>
  <variable name="x94_53" index="9677" value="1"/>
  <variable name="x95_57" index="9781" value="1"/>
  <variable name="x96_58" index="9882" value="1"/>
  <variable name="x97_67" index="9991" value="1"/>
  <variable name="x98_37" index="10061" value="1"/>
  <variable name="x99_50" index="10174" value="1"/>
 </variables>
</CPLEXSolution>
